p cnf 225 1
225 0
w 1 0.0392514
w 2 1 1
w 2 -1 0
w 3 2 0.506627
w 3 -2 0.439741
w 4 3 1
w 4 -3 0
w 5 4 0
w 5 -4 1
w 6 5 0
w 6 -5 1
w 7 6 1
w 7 -6 0
w 8 7 0.612995
w 8 -7 0.36846
w 9 8 0.993414
w 9 -8 0.237359
w 10 9 0.199565
w 10 -9 0.608155
w 11 10 0
w 11 -10 1
w 12 11 1
w 12 -11 0
w 13 12 0.431766
w 13 -12 0.565729
w 14 13 0
w 14 -13 1
w 15 14 0.683553
w 15 -14 0.080169
w 16 1 0
w 16 -1 1
w 17 16 2 0.841779
w 17 16 -2 0.595995
w 17 -16 2 0.336039
w 17 -16 -2 0.988338
w 18 17 3 1
w 18 17 -3 1
w 18 -17 3 0
w 18 -17 -3 0
w 19 18 4 1
w 19 18 -4 1
w 19 -18 4 1
w 19 -18 -4 0
w 20 19 5 0.0363822
w 20 19 -5 0.102457
w 20 -19 5 0.81861
w 20 -19 -5 0.476872
w 21 20 6 1
w 21 20 -6 1
w 21 -20 6 1
w 21 -20 -6 0
w 22 21 7 1
w 22 21 -7 1
w 22 -21 7 1
w 22 -21 -7 0
w 23 22 8 0.707804
w 23 22 -8 0.327214
w 23 -22 8 0.298126
w 23 -22 -8 0.696142
w 24 23 9 0.0131329
w 24 23 -9 0.518551
w 24 -23 9 0.867637
w 24 -23 -9 0.341135
w 25 24 10 0.957177
w 25 24 -10 0.66255
w 25 -24 10 0.137647
w 25 -24 -10 0.604304
w 26 25 11 0
w 26 25 -11 1
w 26 -25 11 0
w 26 -25 -11 0
w 27 26 12 0.55954
w 27 26 -12 0.0143194
w 27 -26 12 0.672233
w 27 -26 -12 0.939195
w 28 27 13 0.280159
w 28 27 -13 0.39902
w 28 -27 13 0.528366
w 28 -27 -13 0.0113776
w 29 28 14 0
w 29 28 -14 0
w 29 -28 14 1
w 29 -28 -14 0
w 30 29 15 0.672366
w 30 29 -15 0.450864
w 30 -29 15 0.847789
w 30 -29 -15 0.0135004
w 31 16 0
w 31 -16 1
w 32 31 17 0.29793
w 32 31 -17 0.40927
w 32 -31 17 0.85958
w 32 -31 -17 0.471959
w 33 32 18 1
w 33 32 -18 0
w 33 -32 18 1
w 33 -32 -18 0
w 34 33 19 0.208025
w 34 33 -19 0.281813
w 34 -33 19 0.621596
w 34 -33 -19 0.870366
w 35 34 20 0.0206155
w 35 34 -20 0.398732
w 35 -34 20 0.57335
w 35 -34 -20 0.381722
w 36 35 21 0.911941
w 36 35 -21 0.0409552
w 36 -35 21 0.567215
w 36 -35 -21 0.892093
w 37 36 22 0.018079
w 37 36 -22 0.739882
w 37 -36 22 0.726821
w 37 -36 -22 0.178362
w 38 37 23 0.402872
w 38 37 -23 0.476292
w 38 -37 23 0.954118
w 38 -37 -23 0.262452
w 39 38 24 0.0701481
w 39 38 -24 0.124173
w 39 -38 24 0.0711128
w 39 -38 -24 0.263854
w 40 39 25 0.753514
w 40 39 -25 0.471879
w 40 -39 25 0.0155664
w 40 -39 -25 0.375109
w 41 40 26 0
w 41 40 -26 1
w 41 -40 26 0
w 41 -40 -26 0
w 42 41 27 1
w 42 41 -27 1
w 42 -41 27 0
w 42 -41 -27 0
w 43 42 28 0.961173
w 43 42 -28 0.694803
w 43 -42 28 0.258545
w 43 -42 -28 0.139535
w 44 43 29 1
w 44 43 -29 0
w 44 -43 29 1
w 44 -43 -29 1
w 45 44 30 0.263917
w 45 44 -30 0.0480417
w 45 -44 30 0.635192
w 45 -44 -30 0.527771
w 46 31 0.388705
w 46 -31 0.99965
w 47 46 32 0.763815
w 47 46 -32 0.341894
w 47 -46 32 0.3749
w 47 -46 -32 0.15954
w 48 47 33 1
w 48 47 -33 1
w 48 -47 33 0
w 48 -47 -33 1
w 49 48 34 0.401842
w 49 48 -34 0.543539
w 49 -48 34 0.287113
w 49 -48 -34 0.363015
w 50 49 35 0
w 50 49 -35 0
w 50 -49 35 0
w 50 -49 -35 1
w 51 50 36 0.130943
w 51 50 -36 0.682457
w 51 -50 36 0.93568
w 51 -50 -36 0.178985
w 52 51 37 0
w 52 51 -37 0
w 52 -51 37 0
w 52 -51 -37 1
w 53 52 38 0.470169
w 53 52 -38 0.804994
w 53 -52 38 0.13304
w 53 -52 -38 0.629709
w 54 53 39 0.658828
w 54 53 -39 0.566696
w 54 -53 39 0.346613
w 54 -53 -39 0.247445
w 55 54 40 0
w 55 54 -40 1
w 55 -54 40 0
w 55 -54 -40 0
w 56 55 41 0
w 56 55 -41 1
w 56 -55 41 0
w 56 -55 -41 1
w 57 56 42 1
w 57 56 -42 0
w 57 -56 42 0
w 57 -56 -42 0
w 58 57 43 0.578213
w 58 57 -43 0.632636
w 58 -57 43 0.438858
w 58 -57 -43 0.0413135
w 59 58 44 0
w 59 58 -44 1
w 59 -58 44 1
w 59 -58 -44 1
w 60 59 45 0.182645
w 60 59 -45 0.105432
w 60 -59 45 0.0807846
w 60 -59 -45 0.430089
w 61 46 1
w 61 -46 0
w 62 61 47 0
w 62 61 -47 1
w 62 -61 47 1
w 62 -61 -47 1
w 63 62 48 0.757717
w 63 62 -48 0.553497
w 63 -62 48 0.287129
w 63 -62 -48 0.936798
w 64 63 49 1
w 64 63 -49 0
w 64 -63 49 1
w 64 -63 -49 0
w 65 64 50 0.350861
w 65 64 -50 0.873348
w 65 -64 50 0.671086
w 65 -64 -50 0.741638
w 66 65 51 0.517394
w 66 65 -51 0.265454
w 66 -65 51 0.321111
w 66 -65 -51 0.251566
w 67 66 52 0
w 67 66 -52 0
w 67 -66 52 1
w 67 -66 -52 1
w 68 67 53 0
w 68 67 -53 1
w 68 -67 53 1
w 68 -67 -53 1
w 69 68 54 0.107375
w 69 68 -54 0.635839
w 69 -68 54 0.94416
w 69 -68 -54 0.0441729
w 70 69 55 0.646145
w 70 69 -55 0.0957329
w 70 -69 55 0.400433
w 70 -69 -55 0.0806338
w 71 70 56 0.751295
w 71 70 -56 0.953981
w 71 -70 56 0.396592
w 71 -70 -56 0.492932
w 72 71 57 0.913986
w 72 71 -57 0.758387
w 72 -71 57 0.0574674
w 72 -71 -57 0.165552
w 73 72 58 0
w 73 72 -58 1
w 73 -72 58 0
w 73 -72 -58 1
w 74 73 59 0.183934
w 74 73 -59 0.228843
w 74 -73 59 0.761793
w 74 -73 -59 0.533592
w 75 74 60 0
w 75 74 -60 0
w 75 -74 60 1
w 75 -74 -60 1
w 76 61 0.629231
w 76 -61 0.00912856
w 77 76 62 0.0296644
w 77 76 -62 0.0897623
w 77 -76 62 0.506378
w 77 -76 -62 0.780959
w 78 77 63 0
w 78 77 -63 1
w 78 -77 63 0
w 78 -77 -63 0
w 79 78 64 0
w 79 78 -64 1
w 79 -78 64 0
w 79 -78 -64 0
w 80 79 65 0
w 80 79 -65 1
w 80 -79 65 1
w 80 -79 -65 0
w 81 80 66 0.901698
w 81 80 -66 0.0409633
w 81 -80 66 0.199674
w 81 -80 -66 0.320522
w 82 81 67 0.146697
w 82 81 -67 0.683506
w 82 -81 67 0.367069
w 82 -81 -67 0.775928
w 83 82 68 0.147942
w 83 82 -68 0.805592
w 83 -82 68 0.782397
w 83 -82 -68 0.65432
w 84 83 69 0.82614
w 84 83 -69 0.55729
w 84 -83 69 0.860443
w 84 -83 -69 0.60624
w 85 84 70 0
w 85 84 -70 1
w 85 -84 70 1
w 85 -84 -70 1
w 86 85 71 0.837166
w 86 85 -71 0.454923
w 86 -85 71 0.425032
w 86 -85 -71 0.977071
w 87 86 72 0.313522
w 87 86 -72 0.878769
w 87 -86 72 0.00325768
w 87 -86 -72 0.513196
w 88 87 73 1
w 88 87 -73 1
w 88 -87 73 0
w 88 -87 -73 0
w 89 88 74 1
w 89 88 -74 1
w 89 -88 74 1
w 89 -88 -74 0
w 90 89 75 0.827964
w 90 89 -75 0.183967
w 90 -89 75 0.411808
w 90 -89 -75 0.688407
w 91 76 0.786055
w 91 -76 0.581129
w 92 91 77 1
w 92 91 -77 1
w 92 -91 77 0
w 92 -91 -77 1
w 93 92 78 0
w 93 92 -78 0
w 93 -92 78 1
w 93 -92 -78 1
w 94 93 79 1
w 94 93 -79 0
w 94 -93 79 1
w 94 -93 -79 0
w 95 94 80 0.870534
w 95 94 -80 0.346862
w 95 -94 80 0.493332
w 95 -94 -80 0.0707326
w 96 95 81 0.851159
w 96 95 -81 0.925251
w 96 -95 81 0.416239
w 96 -95 -81 0.0351258
w 97 96 82 0
w 97 96 -82 0
w 97 -96 82 1
w 97 -96 -82 0
w 98 97 83 0
w 98 97 -83 1
w 98 -97 83 0
w 98 -97 -83 1
w 99 98 84 0.48318
w 99 98 -84 0.202945
w 99 -98 84 0.695759
w 99 -98 -84 0.221134
w 100 99 85 0
w 100 99 -85 1
w 100 -99 85 1
w 100 -99 -85 1
w 101 100 86 1
w 101 100 -86 0
w 101 -100 86 1
w 101 -100 -86 1
w 102 101 87 0.318462
w 102 101 -87 0.336258
w 102 -101 87 0.513643
w 102 -101 -87 0.734702
w 103 102 88 1
w 103 102 -88 1
w 103 -102 88 0
w 103 -102 -88 1
w 104 103 89 0.256065
w 104 103 -89 0.23974
w 104 -103 89 0.923514
w 104 -103 -89 0.314812
w 105 104 90 1
w 105 104 -90 0
w 105 -104 90 0
w 105 -104 -90 1
w 106 91 1
w 106 -91 0
w 107 106 92 1
w 107 106 -92 0
w 107 -106 92 0
w 107 -106 -92 0
w 108 107 93 1
w 108 107 -93 1
w 108 -107 93 0
w 108 -107 -93 1
w 109 108 94 0.280867
w 109 108 -94 0.658085
w 109 -108 94 0.985718
w 109 -108 -94 0.131569
w 110 109 95 1
w 110 109 -95 0
w 110 -109 95 0
w 110 -109 -95 1
w 111 110 96 1
w 111 110 -96 0
w 111 -110 96 0
w 111 -110 -96 1
w 112 111 97 0.519348
w 112 111 -97 0.620715
w 112 -111 97 0.570429
w 112 -111 -97 0.246692
w 113 112 98 0.0618378
w 113 112 -98 0.0479019
w 113 -112 98 0.295937
w 113 -112 -98 0.936571
w 114 113 99 0.47477
w 114 113 -99 0.541492
w 114 -113 99 0.118955
w 114 -113 -99 0.241994
w 115 114 100 1
w 115 114 -100 1
w 115 -114 100 0
w 115 -114 -100 0
w 116 115 101 0.620393
w 116 115 -101 0.901443
w 116 -115 101 0.759816
w 116 -115 -101 0.642951
w 117 116 102 1
w 117 116 -102 1
w 117 -116 102 1
w 117 -116 -102 0
w 118 117 103 1
w 118 117 -103 0
w 118 -117 103 1
w 118 -117 -103 1
w 119 118 104 0
w 119 118 -104 0
w 119 -118 104 1
w 119 -118 -104 0
w 120 119 105 0.0507232
w 120 119 -105 0.754889
w 120 -119 105 0.709482
w 120 -119 -105 0.292717
w 121 106 1
w 121 -106 0
w 122 121 107 0.342724
w 122 121 -107 0.161781
w 122 -121 107 0.470009
w 122 -121 -107 0.963117
w 123 122 108 1
w 123 122 -108 0
w 123 -122 108 0
w 123 -122 -108 1
w 124 123 109 1
w 124 123 -109 1
w 124 -123 109 0
w 124 -123 -109 0
w 125 124 110 0.864882
w 125 124 -110 0.355971
w 125 -124 110 0.427273
w 125 -124 -110 0.144898
w 126 125 111 0.176921
w 126 125 -111 0.720851
w 126 -125 111 0.846195
w 126 -125 -111 0.767448
w 127 126 112 0.601084
w 127 126 -112 0.476931
w 127 -126 112 0.064292
w 127 -126 -112 0.820848
w 128 127 113 0.879871
w 128 127 -113 0.163572
w 128 -127 113 0.0814838
w 128 -127 -113 0.34988
w 129 128 114 0
w 129 128 -114 1
w 129 -128 114 1
w 129 -128 -114 1
w 130 129 115 0.927849
w 130 129 -115 0.0442983
w 130 -129 115 0.184947
w 130 -129 -115 0.147479
w 131 130 116 1
w 131 130 -116 1
w 131 -130 116 1
w 131 -130 -116 0
w 132 131 117 1
w 132 131 -117 1
w 132 -131 117 1
w 132 -131 -117 0
w 133 132 118 0.621328
w 133 132 -118 0.759048
w 133 -132 118 0.713977
w 133 -132 -118 0.442177
w 134 133 119 0.593848
w 134 133 -119 0.605749
w 134 -133 119 0.760235
w 134 -133 -119 0.943728
w 135 134 120 0.904943
w 135 134 -120 0.523434
w 135 -134 120 0.465195
w 135 -134 -120 0.452818
w 136 121 1
w 136 -121 0
w 137 136 122 0
w 137 136 -122 1
w 137 -136 122 1
w 137 -136 -122 0
w 138 137 123 0.223648
w 138 137 -123 0.871076
w 138 -137 123 0.710145
w 138 -137 -123 0.397697
w 139 138 124 1
w 139 138 -124 0
w 139 -138 124 0
w 139 -138 -124 1
w 140 139 125 0
w 140 139 -125 1
w 140 -139 125 0
w 140 -139 -125 1
w 141 140 126 0.0871944
w 141 140 -126 0.865897
w 141 -140 126 0.489495
w 141 -140 -126 0.819632
w 142 141 127 0.0129291
w 142 141 -127 0.284828
w 142 -141 127 0.223659
w 142 -141 -127 0.450836
w 143 142 128 0.720775
w 143 142 -128 0.0736907
w 143 -142 128 0.218396
w 143 -142 -128 0.403172
w 144 143 129 0.771282
w 144 143 -129 0.626821
w 144 -143 129 0.478096
w 144 -143 -129 0.481427
w 145 144 130 0
w 145 144 -130 0
w 145 -144 130 0
w 145 -144 -130 1
w 146 145 131 1
w 146 145 -131 1
w 146 -145 131 1
w 146 -145 -131 0
w 147 146 132 0.0503687
w 147 146 -132 0.930175
w 147 -146 132 0.294804
w 147 -146 -132 0.870001
w 148 147 133 0.307734
w 148 147 -133 0.154828
w 148 -147 133 0.924673
w 148 -147 -133 0.75857
w 149 148 134 0.645449
w 149 148 -134 0.832261
w 149 -148 134 0.0510969
w 149 -148 -134 0.0486208
w 150 149 135 0
w 150 149 -135 0
w 150 -149 135 1
w 150 -149 -135 1
w 151 136 0.781217
w 151 -136 0.373488
w 152 151 137 1
w 152 151 -137 1
w 152 -151 137 1
w 152 -151 -137 0
w 153 152 138 0.587321
w 153 152 -138 0.335813
w 153 -152 138 0.745964
w 153 -152 -138 0.63769
w 154 153 139 0
w 154 153 -139 0
w 154 -153 139 0
w 154 -153 -139 1
w 155 154 140 0.891676
w 155 154 -140 0.107072
w 155 -154 140 0.49522
w 155 -154 -140 0.537125
w 156 155 141 0.546317
w 156 155 -141 0.585746
w 156 -155 141 0.378612
w 156 -155 -141 0.368696
w 157 156 142 1
w 157 156 -142 0
w 157 -156 142 0
w 157 -156 -142 1
w 158 157 143 0
w 158 157 -143 0
w 158 -157 143 1
w 158 -157 -143 1
w 159 158 144 0.667754
w 159 158 -144 0.315034
w 159 -158 144 0.997475
w 159 -158 -144 0.413718
w 160 159 145 0.263463
w 160 159 -145 0.454486
w 160 -159 145 0.460415
w 160 -159 -145 0.230466
w 161 160 146 0.122934
w 161 160 -146 0.122142
w 161 -160 146 0.910059
w 161 -160 -146 0.618155
w 162 161 147 0.849391
w 162 161 -147 0.164472
w 162 -161 147 0.245013
w 162 -161 -147 0.228004
w 163 162 148 0.5062
w 163 162 -148 0.523992
w 163 -162 148 0.205668
w 163 -162 -148 0.467347
w 164 163 149 0.251656
w 164 163 -149 0.570913
w 164 -163 149 0.991323
w 164 -163 -149 0.978756
w 165 164 150 1
w 165 164 -150 0
w 165 -164 150 0
w 165 -164 -150 0
w 166 151 1
w 166 -151 0
w 167 166 152 0.514713
w 167 166 -152 0.0267981
w 167 -166 152 0.14439
w 167 -166 -152 0.3177
w 168 167 153 1
w 168 167 -153 0
w 168 -167 153 0
w 168 -167 -153 0
w 169 168 154 1
w 169 168 -154 0
w 169 -168 154 0
w 169 -168 -154 1
w 170 169 155 0.829146
w 170 169 -155 0.671194
w 170 -169 155 0.14436
w 170 -169 -155 0.430343
w 171 170 156 0.715272
w 171 170 -156 0.421666
w 171 -170 156 0.901606
w 171 -170 -156 0.0138973
w 172 171 157 0
w 172 171 -157 0
w 172 -171 157 1
w 172 -171 -157 1
w 173 172 158 1
w 173 172 -158 1
w 173 -172 158 0
w 173 -172 -158 1
w 174 173 159 1
w 174 173 -159 0
w 174 -173 159 0
w 174 -173 -159 0
w 175 174 160 0.0707155
w 175 174 -160 0.146567
w 175 -174 160 0.050821
w 175 -174 -160 0.536241
w 176 175 161 0.879967
w 176 175 -161 0.207435
w 176 -175 161 0.96794
w 176 -175 -161 0.31031
w 177 176 162 0
w 177 176 -162 1
w 177 -176 162 1
w 177 -176 -162 0
w 178 177 163 0.580007
w 178 177 -163 0.324665
w 178 -177 163 0.531737
w 178 -177 -163 0.188351
w 179 178 164 0.170771
w 179 178 -164 0.311408
w 179 -178 164 0.739342
w 179 -178 -164 0.954195
w 180 179 165 0.109812
w 180 179 -165 0.00415025
w 180 -179 165 0.420682
w 180 -179 -165 0.248169
w 181 166 0.166349
w 181 -166 0.318885
w 182 181 167 0
w 182 181 -167 0
w 182 -181 167 1
w 182 -181 -167 1
w 183 182 168 0
w 183 182 -168 1
w 183 -182 168 0
w 183 -182 -168 1
w 184 183 169 1
w 184 183 -169 1
w 184 -183 169 0
w 184 -183 -169 1
w 185 184 170 1
w 185 184 -170 1
w 185 -184 170 0
w 185 -184 -170 1
w 186 185 171 0.60275
w 186 185 -171 0.0566654
w 186 -185 171 0.990738
w 186 -185 -171 0.6069
w 187 186 172 0
w 187 186 -172 0
w 187 -186 172 1
w 187 -186 -172 0
w 188 187 173 0.860867
w 188 187 -173 0.412917
w 188 -187 173 0.66333
w 188 -187 -173 0.958004
w 189 188 174 1
w 189 188 -174 1
w 189 -188 174 0
w 189 -188 -174 0
w 190 189 175 0.893058
w 190 189 -175 0.480838
w 190 -189 175 0.45092
w 190 -189 -175 0.6978
w 191 190 176 0
w 191 190 -176 1
w 191 -190 176 0
w 191 -190 -176 0
w 192 191 177 0
w 192 191 -177 1
w 192 -191 177 1
w 192 -191 -177 0
w 193 192 178 0.35597
w 193 192 -178 0.373714
w 193 -192 178 0.173102
w 193 -192 -178 0.913762
w 194 193 179 1
w 194 193 -179 0
w 194 -193 179 1
w 194 -193 -179 1
w 195 194 180 0.331643
w 195 194 -180 0.357424
w 195 -194 180 0.47048
w 195 -194 -180 0.514169
w 196 181 0.363538
w 196 -181 0.995007
w 197 196 182 1
w 197 196 -182 0
w 197 -196 182 0
w 197 -196 -182 0
w 198 197 183 0.747623
w 198 197 -183 0.470549
w 198 -197 183 0.999188
w 198 -197 -183 0.799681
w 199 198 184 0.786097
w 199 198 -184 0.329086
w 199 -198 184 0.943582
w 199 -198 -184 0.159811
w 200 199 185 0.857344
w 200 199 -185 0.246802
w 200 -199 185 0.536157
w 200 -199 -185 0.184023
w 201 200 186 0.52813
w 201 200 -186 0.98618
w 201 -200 186 0.328766
w 201 -200 -186 0.885554
w 202 201 187 1
w 202 201 -187 0
w 202 -201 187 0
w 202 -201 -187 0
w 203 202 188 0
w 203 202 -188 0
w 203 -202 188 1
w 203 -202 -188 0
w 204 203 189 0
w 204 203 -189 1
w 204 -203 189 1
w 204 -203 -189 1
w 205 204 190 0
w 205 204 -190 0
w 205 -204 190 1
w 205 -204 -190 0
w 206 205 191 0
w 206 205 -191 1
w 206 -205 191 0
w 206 -205 -191 1
w 207 206 192 0
w 207 206 -192 1
w 207 -206 192 0
w 207 -206 -192 0
w 208 207 193 0.766938
w 208 207 -193 0.482886
w 208 -207 193 0.710036
w 208 -207 -193 0.587137
w 209 208 194 1
w 209 208 -194 0
w 209 -208 194 0
w 209 -208 -194 0
w 210 209 195 0
w 210 209 -195 0
w 210 -209 195 1
w 210 -209 -195 0
w 211 196 0
w 211 -196 1
w 212 211 197 0.225052
w 212 211 -197 0.175053
w 212 -211 197 0.912002
w 212 -211 -197 0.292311
w 213 212 198 1
w 213 212 -198 0
w 213 -212 198 1
w 213 -212 -198 1
w 214 213 199 0.686455
w 214 213 -199 0.557509
w 214 -213 199 0.774715
w 214 -213 -199 0.453393
w 215 214 200 0
w 215 214 -200 0
w 215 -214 200 0
w 215 -214 -200 1
w 216 215 201 0.618818
w 216 215 -201 0.329938
w 216 -215 201 0.611641
w 216 -215 -201 0.157401
w 217 216 202 0.0954695
w 217 216 -202 0.447522
w 217 -216 202 0.843792
w 217 -216 -202 0.760367
w 218 217 203 1
w 218 217 -203 0
w 218 -217 203 1
w 218 -217 -203 0
w 219 218 204 0
w 219 218 -204 1
w 219 -218 204 0
w 219 -218 -204 1
w 220 219 205 0.671244
w 220 219 -205 0.103504
w 220 -219 205 0.442595
w 220 -219 -205 0.445959
w 221 220 206 0.482991
w 221 220 -206 0.930709
w 221 -220 206 0.597427
w 221 -220 -206 0.844215
w 222 221 207 0
w 222 221 -207 1
w 222 -221 207 0
w 222 -221 -207 1
w 223 222 208 0.0426886
w 223 222 -208 0.813741
w 223 -222 208 0.0679555
w 223 -222 -208 0.886481
w 224 223 209 0.144748
w 224 223 -209 0.955325
w 224 -223 209 0.509528
w 224 -223 -209 0.133543
w 225 224 210 0
w 225 224 -210 0
w 225 -224 210 1
w 225 -224 -210 0